NAME: tsp30-28
TYPE: TSP
DIMENSION: 30
EDGE_WEIGHT_TYPE: EUC_2D
NODE_COORD_SECTION
0 58 77
1 16 18
2 0 95
3 98 26
4 16 98
5 77 62
6 30 63
7 60 76
8 40 69
9 92 95
10 44 61
11 22 0
12 17 39
13 20 97
14 82 78
15 96 47
16 81 70
17 96 97
18 11 63
19 48 90
20 9 73
21 85 61
22 41 49
23 9 74
24 98 67
25 8 7
26 10 80
27 74 15
28 53 43
29 67 97
EOF